; benchmark generated from python API
(set-info :status unknown)
(declare-fun strlen_85_64 () (_ BitVec 64))
(declare-fun args_1_8 () (_ BitVec 8))
(declare-fun strlen_83_64 () (_ BitVec 64))
(declare-fun strncmp_ret_84_32 () (_ BitVec 32))
(declare-fun strncmp_ret_86_32 () (_ BitVec 32))
(declare-fun filesize_file_0_/proc/self/loginuid_88_64 () (_ BitVec 64))
(declare-fun syscall_stub_ioctl_95_32 () (_ BitVec 32))
(declare-fun syscall_stub_newfstatat_124_64 () (_ BitVec 64))
(declare-fun syscall_stub_readlink_160_64 () (_ BitVec 64))
(declare-fun mem_7fffffffffef420_174_8 () (_ BitVec 8))
(declare-fun syscall_stub_newfstatat_220_64 () (_ BitVec 64))
(declare-fun mem_7fffffffffef038_297_64 () (_ BitVec 64))
(declare-fun mem_7fffffffffeefa8_298_64 () (_ BitVec 64))
(declare-fun mem_7fffffffffeefa0_344_64 () (_ BitVec 64))
(declare-fun mem_7fffffffffef030_345_64 () (_ BitVec 64))
(declare-fun mem_7fffffffffef048_398_32 () (_ BitVec 32))
(declare-fun mem_7fffffffffeefc8_430_64 () (_ BitVec 64))
(declare-fun mem_7fffffffffef058_431_64 () (_ BitVec 64))
(declare-fun strlen_986_64 () (_ BitVec 64))
(declare-fun mem_7fffffffffef425_984_64 () (_ BitVec 64))
(declare-fun access_2286_32 () (_ BitVec 32))
(declare-fun access_3256_32 () (_ BitVec 32))
(declare-fun strlen_5314_64 () (_ BitVec 64))
(declare-fun mem_2c_5313_264 () (_ BitVec 264))
(declare-fun strlen_8287_64 () (_ BitVec 64))
(declare-fun mem_7fffffffffef740_6392_248 () (_ BitVec 248))
(assert
 (let ((?x751 (bvadd (_ bv576460752303357826 64) strlen_85_64)))
 (let (($x69 (= (_ bv0 8) args_1_8)))
 (let ((?x46 (ite $x69 (_ bv576460752303357826 64) (_ bv576460752303357827 64))))
 (= ?x46 ?x751)))))
(assert
 (let ((?x101 (bvadd (_ bv576460752303357826 64) strlen_83_64)))
 (let (($x69 (= (_ bv0 8) args_1_8)))
 (let ((?x46 (ite $x69 (_ bv576460752303357826 64) (_ bv576460752303357827 64))))
 (= ?x46 ?x101)))))
(assert
 (let (($x104 (bvule (_ bv2 64) strlen_83_64)))
 (let (($x48 (= (_ bv2 64) strlen_83_64)))
 (let (($x122 (or $x48 $x104)))
 (let (($x123 (not $x122)))
 (let (($x57 (= (_ bv45 8) args_1_8)))
 (let (($x121 (not $x57)))
 (or $x121 $x123))))))))
(assert
 (= (_ bv1 32) strncmp_ret_84_32))
(assert
 (= (_ bv1 32) strncmp_ret_86_32))
(assert
 true)
(assert
 (let (($x1210 (bvsge (_ bv0 64) filesize_file_0_/proc/self/loginuid_88_64)))
 (let ((?x1217 (ite $x1210 (_ bv0 64) filesize_file_0_/proc/self/loginuid_88_64)))
 (let ((?x1236 ((_ extract 3 0) filesize_file_0_/proc/self/loginuid_88_64)))
 (let ((?x99 (ite $x1210 (_ bv0 4) ?x1236)))
 (let (($x1110 (bvule ?x99 (_ bv12 4))))
 (let ((?x1229 ((_ extract 63 4) filesize_file_0_/proc/self/loginuid_88_64)))
 (let (($x523 (= (_ bv0 60) ?x1229)))
 (let (($x516 (or $x1210 $x523)))
 (let (($x975 (and $x516 $x1110)))
 (let ((?x1169 (ite $x975 ?x1217 (_ bv12 64))))
 (= (_ bv12 64) ?x1169))))))))))))
(assert
 (= (_ bv0 32) syscall_stub_ioctl_95_32))
(assert
 (let ((?x3122 ((_ extract 31 0) syscall_stub_newfstatat_124_64)))
 (bvule ?x3122 (_ bv4294963200 32))))
(assert
 (= (_ bv13 64) syscall_stub_readlink_160_64))
(assert
 (= (_ bv47 8) mem_7fffffffffef420_174_8))
(assert
 (let ((?x116194 ((_ extract 31 0) syscall_stub_newfstatat_220_64)))
 (bvule ?x116194 (_ bv4294963200 32))))
(assert
 (= mem_7fffffffffeefa8_298_64 mem_7fffffffffef038_297_64))
(assert
 (= mem_7fffffffffef030_345_64 mem_7fffffffffeefa0_344_64))
(assert
 (let ((?x278280 ((_ extract 15 12) mem_7fffffffffef048_398_32)))
 (= (_ bv2 4) ?x278280)))
(assert
 (= mem_7fffffffffef058_431_64 mem_7fffffffffeefc8_430_64))
(assert
 (let ((?x448396 (bvadd (_ bv576460752303354917 64) strlen_986_64)))
 (let ((?x448386 ((_ extract 7 0) mem_7fffffffffef425_984_64)))
 (let (($x448379 (= (_ bv0 8) ?x448386)))
 (let ((?x116240 (ite $x448379 (_ bv576460752303354924 64) (_ bv576460752303354925 64))))
 (let ((?x448338 ((_ extract 15 8) mem_7fffffffffef425_984_64)))
 (let (($x442876 (= (_ bv0 8) ?x448338)))
 (let ((?x119400 (ite $x442876 (_ bv576460752303354923 64) ?x116240)))
 (let ((?x448374 ((_ extract 23 16) mem_7fffffffffef425_984_64)))
 (let (($x446240 (= (_ bv0 8) ?x448374)))
 (let ((?x276917 (ite $x446240 (_ bv576460752303354922 64) ?x119400)))
 (let ((?x442858 ((_ extract 31 24) mem_7fffffffffef425_984_64)))
 (let (($x448342 (= (_ bv0 8) ?x442858)))
 (let ((?x276826 (ite $x448342 (_ bv576460752303354921 64) ?x276917)))
 (let ((?x446360 ((_ extract 39 32) mem_7fffffffffef425_984_64)))
 (let (($x448387 (= (_ bv0 8) ?x446360)))
 (let ((?x119860 (ite $x448387 (_ bv576460752303354920 64) ?x276826)))
 (let ((?x448362 ((_ extract 47 40) mem_7fffffffffef425_984_64)))
 (let (($x446494 (= (_ bv0 8) ?x448362)))
 (let ((?x117259 (ite $x446494 (_ bv576460752303354919 64) ?x119860)))
 (let ((?x448389 ((_ extract 55 48) mem_7fffffffffef425_984_64)))
 (let (($x442868 (= (_ bv0 8) ?x448389)))
 (let ((?x119730 (ite $x442868 (_ bv576460752303354918 64) ?x117259)))
 (let ((?x446462 ((_ extract 63 56) mem_7fffffffffef425_984_64)))
 (let (($x446502 (= (_ bv0 8) ?x446462)))
 (let ((?x116346 (ite $x446502 (_ bv576460752303354917 64) ?x119730)))
 (= ?x116346 ?x448396)))))))))))))))))))))))))))
(assert
 (let ((?x448467 (bvadd (_ bv1 64) strlen_986_64)))
 (let ((?x449136 ((_ extract 63 4) ?x448467)))
 (= (_ bv0 60) ?x449136))))
(assert
 (let ((?x449132 ((_ extract 3 0) strlen_986_64)))
 (let ((?x446635 (bvadd (_ bv1 4) ?x449132)))
 (bvule ?x446635 (_ bv9 4)))))
(assert
 (let ((?x448467 (bvadd (_ bv1 64) strlen_986_64)))
 (let (($x448493 (bvule (_ bv31 64) strlen_986_64)))
 (let (($x448643 (bvule strlen_986_64 (_ bv18446744073709551614 64))))
 (let (($x448969 (and $x448643 $x448493)))
 (let ((?x448926 (ite $x448969 (_ bv32 64) ?x448467)))
 (bvule (_ bv1 64) ?x448926)))))))
(assert
 (let (($x448493 (bvule (_ bv31 64) strlen_986_64)))
 (let (($x448726 (not $x448493)))
 (let (($x448643 (bvule strlen_986_64 (_ bv18446744073709551614 64))))
 (let (($x448713 (not $x448643)))
 (or $x448713 $x448726))))))
(assert
 (= (_ bv4294967295 32) access_2286_32))
(assert
 (= (_ bv0 32) access_3256_32))
(assert
 (= (_ bv31 64) strlen_5314_64))
(assert
 (let ((?x1290053 ((_ extract 15 8) mem_2c_5313_264)))
 (= (_ bv0 8) ?x1290053)))
(assert
 (let ((?x1290051 ((_ extract 23 16) mem_2c_5313_264)))
 (let (($x1290050 (= (_ bv0 8) ?x1290051)))
 (not $x1290050))))
(assert
 (let ((?x1290048 ((_ extract 31 24) mem_2c_5313_264)))
 (let (($x1290047 (= (_ bv0 8) ?x1290048)))
 (not $x1290047))))
(assert
 (let ((?x1290046 ((_ extract 39 32) mem_2c_5313_264)))
 (let (($x1290045 (= (_ bv0 8) ?x1290046)))
 (not $x1290045))))
(assert
 (let ((?x1290044 ((_ extract 47 40) mem_2c_5313_264)))
 (let (($x1290043 (= (_ bv0 8) ?x1290044)))
 (not $x1290043))))
(assert
 (let ((?x1290042 ((_ extract 55 48) mem_2c_5313_264)))
 (let (($x1290041 (= (_ bv0 8) ?x1290042)))
 (not $x1290041))))
(assert
 (let ((?x1290040 ((_ extract 63 56) mem_2c_5313_264)))
 (let (($x1290038 (= (_ bv0 8) ?x1290040)))
 (not $x1290038))))
(assert
 (let ((?x1290037 ((_ extract 71 64) mem_2c_5313_264)))
 (let (($x1290036 (= (_ bv0 8) ?x1290037)))
 (not $x1290036))))
(assert
 (let ((?x1290035 ((_ extract 79 72) mem_2c_5313_264)))
 (let (($x1290034 (= (_ bv0 8) ?x1290035)))
 (not $x1290034))))
(assert
 (let ((?x1290033 ((_ extract 87 80) mem_2c_5313_264)))
 (let (($x1290032 (= (_ bv0 8) ?x1290033)))
 (not $x1290032))))
(assert
 (let ((?x1290031 ((_ extract 95 88) mem_2c_5313_264)))
 (let (($x1290030 (= (_ bv0 8) ?x1290031)))
 (not $x1290030))))
(assert
 (let ((?x1290028 ((_ extract 103 96) mem_2c_5313_264)))
 (let (($x1290027 (= (_ bv0 8) ?x1290028)))
 (not $x1290027))))
(assert
 (let ((?x1290026 ((_ extract 111 104) mem_2c_5313_264)))
 (let (($x1290025 (= (_ bv0 8) ?x1290026)))
 (not $x1290025))))
(assert
 (let ((?x1290024 ((_ extract 119 112) mem_2c_5313_264)))
 (let (($x1290023 (= (_ bv0 8) ?x1290024)))
 (not $x1290023))))
(assert
 (let ((?x1290022 ((_ extract 127 120) mem_2c_5313_264)))
 (let (($x1290021 (= (_ bv0 8) ?x1290022)))
 (not $x1290021))))
(assert
 (let ((?x1290020 ((_ extract 135 128) mem_2c_5313_264)))
 (let (($x1290018 (= (_ bv0 8) ?x1290020)))
 (not $x1290018))))
(assert
 (let ((?x1290017 ((_ extract 143 136) mem_2c_5313_264)))
 (let (($x1290016 (= (_ bv0 8) ?x1290017)))
 (not $x1290016))))
(assert
 (let ((?x1290015 ((_ extract 151 144) mem_2c_5313_264)))
 (let (($x1290014 (= (_ bv0 8) ?x1290015)))
 (not $x1290014))))
(assert
 (let ((?x1290013 ((_ extract 159 152) mem_2c_5313_264)))
 (let (($x1290012 (= (_ bv0 8) ?x1290013)))
 (not $x1290012))))
(assert
 (let ((?x1290011 ((_ extract 167 160) mem_2c_5313_264)))
 (let (($x1290010 (= (_ bv0 8) ?x1290011)))
 (not $x1290010))))
(assert
 (let ((?x1290008 ((_ extract 175 168) mem_2c_5313_264)))
 (let (($x1290007 (= (_ bv0 8) ?x1290008)))
 (not $x1290007))))
(assert
 (let ((?x1290006 ((_ extract 183 176) mem_2c_5313_264)))
 (let (($x1290005 (= (_ bv0 8) ?x1290006)))
 (not $x1290005))))
(assert
 (let ((?x1290004 ((_ extract 191 184) mem_2c_5313_264)))
 (let (($x1290003 (= (_ bv0 8) ?x1290004)))
 (not $x1290003))))
(assert
 (let ((?x1290002 ((_ extract 199 192) mem_2c_5313_264)))
 (let (($x1290001 (= (_ bv0 8) ?x1290002)))
 (not $x1290001))))
(assert
 (let ((?x1290000 ((_ extract 207 200) mem_2c_5313_264)))
 (let (($x1289998 (= (_ bv0 8) ?x1290000)))
 (not $x1289998))))
(assert
 (let ((?x1289997 ((_ extract 215 208) mem_2c_5313_264)))
 (let (($x1289996 (= (_ bv0 8) ?x1289997)))
 (not $x1289996))))
(assert
 (let ((?x1289995 ((_ extract 223 216) mem_2c_5313_264)))
 (let (($x1289994 (= (_ bv0 8) ?x1289995)))
 (not $x1289994))))
(assert
 (let ((?x1289993 ((_ extract 231 224) mem_2c_5313_264)))
 (let (($x1289992 (= (_ bv0 8) ?x1289993)))
 (not $x1289992))))
(assert
 (let ((?x1289991 ((_ extract 239 232) mem_2c_5313_264)))
 (let (($x1289990 (= (_ bv0 8) ?x1289991)))
 (not $x1289990))))
(assert
 (let ((?x1289988 ((_ extract 247 240) mem_2c_5313_264)))
 (let (($x1289987 (= (_ bv0 8) ?x1289988)))
 (not $x1289987))))
(assert
 (let ((?x1289986 ((_ extract 255 248) mem_2c_5313_264)))
 (let (($x1289985 (= (_ bv0 8) ?x1289986)))
 (not $x1289985))))
(assert
 (let ((?x1289983 ((_ extract 263 256) mem_2c_5313_264)))
 (let (($x1289984 (= (_ bv0 8) ?x1289983)))
 (not $x1289984))))
(assert
 (let ((?x1293461 ((_ extract 7 0) mem_7fffffffffef740_6392_248)))
 (let ((?x1356787 ((_ extract 15 0) mem_7fffffffffef740_6392_248)))
 (let ((?x1356922 ((_ extract 23 0) mem_7fffffffffef740_6392_248)))
 (let ((?x1357550 ((_ extract 31 0) mem_7fffffffffef740_6392_248)))
 (let ((?x1355242 ((_ extract 39 0) mem_7fffffffffef740_6392_248)))
 (let ((?x1356997 ((_ extract 47 0) mem_7fffffffffef740_6392_248)))
 (let ((?x1358379 ((_ extract 55 0) mem_7fffffffffef740_6392_248)))
 (let ((?x1358364 ((_ extract 63 0) mem_7fffffffffef740_6392_248)))
 (let ((?x1354174 ((_ extract 71 0) mem_7fffffffffef740_6392_248)))
 (let ((?x1355407 ((_ extract 79 0) mem_7fffffffffef740_6392_248)))
 (let ((?x1351976 ((_ extract 87 0) mem_7fffffffffef740_6392_248)))
 (let ((?x1356344 ((_ extract 95 0) mem_7fffffffffef740_6392_248)))
 (let ((?x1355999 ((_ extract 103 0) mem_7fffffffffef740_6392_248)))
 (let ((?x1356433 ((_ extract 111 0) mem_7fffffffffef740_6392_248)))
 (let ((?x1357889 ((_ extract 119 0) mem_7fffffffffef740_6392_248)))
 (let ((?x1356284 ((_ extract 127 0) mem_7fffffffffef740_6392_248)))
 (let ((?x1355796 ((_ extract 135 0) mem_7fffffffffef740_6392_248)))
 (let ((?x1357764 ((_ extract 143 0) mem_7fffffffffef740_6392_248)))
 (let ((?x1358068 ((_ extract 151 0) mem_7fffffffffef740_6392_248)))
 (let ((?x1358154 ((_ extract 159 0) mem_7fffffffffef740_6392_248)))
 (let ((?x1358103 ((_ extract 167 0) mem_7fffffffffef740_6392_248)))
 (let ((?x1356300 ((_ extract 175 0) mem_7fffffffffef740_6392_248)))
 (let ((?x1358195 ((_ extract 183 0) mem_7fffffffffef740_6392_248)))
 (let ((?x1356872 ((_ extract 191 0) mem_7fffffffffef740_6392_248)))
 (let ((?x1358229 ((_ extract 199 0) mem_7fffffffffef740_6392_248)))
 (let ((?x1358139 ((_ extract 207 0) mem_7fffffffffef740_6392_248)))
 (let ((?x1357080 ((_ extract 215 0) mem_7fffffffffef740_6392_248)))
 (let ((?x1355476 ((_ extract 223 0) mem_7fffffffffef740_6392_248)))
 (let ((?x1358220 ((_ extract 231 0) mem_7fffffffffef740_6392_248)))
 (let ((?x1358334 ((_ extract 239 0) mem_7fffffffffef740_6392_248)))
 (let ((?x1343362 ((_ extract 263 16) mem_2c_5313_264)))
 (let (($x1343573 (= (_ bv1 64) strlen_5314_64)))
 (let ((?x1355032 (ite $x1343573 ?x1343362 mem_7fffffffffef740_6392_248)))
 (let ((?x1354774 ((_ extract 247 240) ?x1355032)))
 (let ((?x1343546 (concat ?x1354774 ?x1358334)))
 (let (($x1296452 (= (_ bv2 64) strlen_5314_64)))
 (let ((?x1357676 (ite $x1296452 ?x1343362 ?x1343546)))
 (let ((?x1356405 ((_ extract 247 232) ?x1357676)))
 (let ((?x1358078 (concat ?x1356405 ?x1358220)))
 (let (($x1343569 (= (_ bv3 64) strlen_5314_64)))
 (let ((?x1358180 (ite $x1343569 ?x1343362 ?x1358078)))
 (let ((?x1356950 ((_ extract 247 224) ?x1358180)))
 (let ((?x1356932 (concat ?x1356950 ?x1355476)))
 (let (($x1296393 (= (_ bv4 64) strlen_5314_64)))
 (let ((?x1358262 (ite $x1296393 ?x1343362 ?x1356932)))
 (let ((?x1356361 ((_ extract 247 216) ?x1358262)))
 (let ((?x1357129 (concat ?x1356361 ?x1357080)))
 (let (($x1343565 (= (_ bv5 64) strlen_5314_64)))
 (let ((?x1354886 (ite $x1343565 ?x1343362 ?x1357129)))
 (let ((?x1357477 ((_ extract 247 208) ?x1354886)))
 (let ((?x1354285 (concat ?x1357477 ?x1358139)))
 (let (($x1296436 (= (_ bv6 64) strlen_5314_64)))
 (let ((?x1355725 (ite $x1296436 ?x1343362 ?x1354285)))
 (let ((?x1357378 ((_ extract 247 200) ?x1355725)))
 (let ((?x1341321 (concat ?x1357378 ?x1358229)))
 (let (($x1343561 (= (_ bv7 64) strlen_5314_64)))
 (let ((?x1357484 (ite $x1343561 ?x1343362 ?x1341321)))
 (let ((?x1341731 ((_ extract 247 192) ?x1357484)))
 (let ((?x1356831 (concat ?x1341731 ?x1356872)))
 (let (($x1296490 (= (_ bv8 64) strlen_5314_64)))
 (let ((?x1355915 (ite $x1296490 ?x1343362 ?x1356831)))
 (let ((?x1357071 ((_ extract 247 184) ?x1355915)))
 (let ((?x1358232 (concat ?x1357071 ?x1358195)))
 (let (($x1343556 (= (_ bv9 64) strlen_5314_64)))
 (let ((?x1355975 (ite $x1343556 ?x1343362 ?x1358232)))
 (let ((?x1356934 ((_ extract 247 176) ?x1355975)))
 (let ((?x1358308 (concat ?x1356934 ?x1356300)))
 (let (($x1296252 (= (_ bv10 64) strlen_5314_64)))
 (let ((?x1342262 (ite $x1296252 ?x1343362 ?x1358308)))
 (let ((?x1358288 ((_ extract 247 168) ?x1342262)))
 (let ((?x1358159 (concat ?x1358288 ?x1358103)))
 (let (($x1296454 (= (_ bv11 64) strlen_5314_64)))
 (let ((?x1352859 (ite $x1296454 ?x1343362 ?x1358159)))
 (let ((?x1354558 ((_ extract 247 160) ?x1352859)))
 (let ((?x1350171 (concat ?x1354558 ?x1358154)))
 (let (($x1296366 (= (_ bv12 64) strlen_5314_64)))
 (let ((?x1343113 (ite $x1296366 ?x1343362 ?x1350171)))
 (let ((?x1343137 ((_ extract 247 152) ?x1343113)))
 (let ((?x1358129 (concat ?x1343137 ?x1358068)))
 (let (($x1343493 (= (_ bv13 64) strlen_5314_64)))
 (let ((?x1358272 (ite $x1343493 ?x1343362 ?x1358129)))
 (let ((?x1341216 ((_ extract 247 144) ?x1358272)))
 (let ((?x1356439 (concat ?x1341216 ?x1357764)))
 (let (($x1343535 (= (_ bv14 64) strlen_5314_64)))
 (let ((?x1355542 (ite $x1343535 ?x1343362 ?x1356439)))
 (let ((?x1358185 ((_ extract 247 136) ?x1355542)))
 (let ((?x1358318 (concat ?x1358185 ?x1355796)))
 (let (($x1295832 (= (_ bv15 64) strlen_5314_64)))
 (let ((?x1357540 (ite $x1295832 ?x1343362 ?x1358318)))
 (let ((?x1356928 ((_ extract 247 128) ?x1357540)))
 (let ((?x1357387 (concat ?x1356928 ?x1356284)))
 (let (($x1343534 (= (_ bv16 64) strlen_5314_64)))
 (let ((?x1354085 (ite $x1343534 ?x1343362 ?x1357387)))
 (let ((?x1358124 ((_ extract 247 120) ?x1354085)))
 (let ((?x1354965 (concat ?x1358124 ?x1357889)))
 (let (($x1343364 (= (_ bv17 64) strlen_5314_64)))
 (let ((?x1354380 (ite $x1343364 ?x1343362 ?x1354965)))
 (let ((?x1357995 ((_ extract 247 112) ?x1354380)))
 (let ((?x1354904 (concat ?x1357995 ?x1356433)))
 (let (($x1343514 (= (_ bv18 64) strlen_5314_64)))
 (let ((?x1355054 (ite $x1343514 ?x1343362 ?x1354904)))
 (let ((?x1293347 ((_ extract 247 104) ?x1355054)))
 (let ((?x1330132 (concat ?x1293347 ?x1355999)))
 (let (($x1343532 (= (_ bv19 64) strlen_5314_64)))
 (let ((?x1356914 (ite $x1343532 ?x1343362 ?x1330132)))
 (let ((?x1352495 ((_ extract 247 96) ?x1356914)))
 (let ((?x1358175 (concat ?x1352495 ?x1356344)))
 (let (($x1343510 (= (_ bv20 64) strlen_5314_64)))
 (let ((?x1356477 (ite $x1343510 ?x1343362 ?x1358175)))
 (let ((?x1357038 ((_ extract 247 88) ?x1356477)))
 (let ((?x1356779 (concat ?x1357038 ?x1351976)))
 (let (($x1343528 (= (_ bv21 64) strlen_5314_64)))
 (let ((?x1341650 (ite $x1343528 ?x1343362 ?x1356779)))
 (let ((?x1357891 ((_ extract 247 80) ?x1341650)))
 (let ((?x1355787 (concat ?x1357891 ?x1355407)))
 (let (($x1343375 (= (_ bv22 64) strlen_5314_64)))
 (let ((?x1358293 (ite $x1343375 ?x1343362 ?x1355787)))
 (let ((?x1358344 ((_ extract 247 72) ?x1358293)))
 (let ((?x1356866 (concat ?x1358344 ?x1354174)))
 (let (($x1343524 (= (_ bv23 64) strlen_5314_64)))
 (let ((?x1353020 (ite $x1343524 ?x1343362 ?x1356866)))
 (let ((?x1356858 ((_ extract 247 64) ?x1353020)))
 (let ((?x1357146 (concat ?x1356858 ?x1358364)))
 (let (($x1296499 (= (_ bv24 64) strlen_5314_64)))
 (let ((?x1356883 (ite $x1296499 ?x1343362 ?x1357146)))
 (let ((?x1358093 ((_ extract 247 56) ?x1356883)))
 (let ((?x1358298 (concat ?x1358093 ?x1358379)))
 (let (($x1343520 (= (_ bv25 64) strlen_5314_64)))
 (let ((?x1336768 (ite $x1343520 ?x1343362 ?x1358298)))
 (let ((?x1352486 ((_ extract 247 48) ?x1336768)))
 (let ((?x1358394 (concat ?x1352486 ?x1356997)))
 (let (($x1296497 (= (_ bv26 64) strlen_5314_64)))
 (let ((?x1358252 (ite $x1296497 ?x1343362 ?x1358394)))
 (let ((?x1342033 ((_ extract 247 40) ?x1358252)))
 (let ((?x1355785 (concat ?x1342033 ?x1355242)))
 (let (($x1343515 (= (_ bv27 64) strlen_5314_64)))
 (let ((?x1342047 (ite $x1343515 ?x1343362 ?x1355785)))
 (let ((?x1355366 ((_ extract 247 32) ?x1342047)))
 (let ((?x1358384 (concat ?x1355366 ?x1357550)))
 (let (($x1343491 (= (_ bv28 64) strlen_5314_64)))
 (let ((?x1354631 (ite $x1343491 ?x1343362 ?x1358384)))
 (let ((?x1293199 ((_ extract 247 24) ?x1354631)))
 (let ((?x1353964 (concat ?x1293199 ?x1356922)))
 (let (($x1343511 (= (_ bv29 64) strlen_5314_64)))
 (let ((?x1358354 (ite $x1343511 ?x1343362 ?x1353964)))
 (let ((?x1352610 ((_ extract 247 16) ?x1358354)))
 (let ((?x1357533 (concat ?x1352610 ?x1356787)))
 (let (($x1296285 (= (_ bv30 64) strlen_5314_64)))
 (let ((?x1355902 (ite $x1296285 ?x1343362 ?x1357533)))
 (let ((?x1343101 ((_ extract 247 8) ?x1355902)))
 (let ((?x1358237 (concat ?x1343101 ?x1293461)))
 (let (($x1343386 (= (_ bv31 64) strlen_5314_64)))
 (let ((?x1341567 (ite $x1343386 ?x1343362 ?x1358237)))
 (let ((?x1589469 ((_ extract 7 0) ?x1341567)))
 (let (($x1590109 (= (_ bv0 8) ?x1589469)))
 (let ((?x1341622 (ite $x1590109 (_ bv576460752303355742 64) (_ bv576460752303355743 64))))
 (let ((?x1589359 ((_ extract 15 8) ?x1341567)))
 (let (($x1589858 (= (_ bv0 8) ?x1589359)))
 (let ((?x1589497 (ite $x1589858 (_ bv576460752303355741 64) ?x1341622)))
 (let ((?x1589276 ((_ extract 23 16) ?x1341567)))
 (let (($x1589837 (= (_ bv0 8) ?x1589276)))
 (let ((?x1589729 (ite $x1589837 (_ bv576460752303355740 64) ?x1589497)))
 (let ((?x1590081 ((_ extract 31 24) ?x1341567)))
 (let (($x1589749 (= (_ bv0 8) ?x1590081)))
 (let ((?x1292698 (ite $x1589749 (_ bv576460752303355739 64) ?x1589729)))
 (let ((?x1590072 ((_ extract 39 32) ?x1341567)))
 (let (($x1589740 (= (_ bv0 8) ?x1590072)))
 (let ((?x1357239 (ite $x1589740 (_ bv576460752303355738 64) ?x1292698)))
 (let ((?x1589489 ((_ extract 47 40) ?x1341567)))
 (let (($x1589501 (= (_ bv0 8) ?x1589489)))
 (let ((?x1352598 (ite $x1589501 (_ bv576460752303355737 64) ?x1357239)))
 (let ((?x1589857 ((_ extract 55 48) ?x1341567)))
 (let (($x1589463 (= (_ bv0 8) ?x1589857)))
 (let ((?x1357113 (ite $x1589463 (_ bv576460752303355736 64) ?x1352598)))
 (let ((?x1590085 ((_ extract 63 56) ?x1341567)))
 (let (($x1589457 (= (_ bv0 8) ?x1590085)))
 (let ((?x1357536 (ite $x1589457 (_ bv576460752303355735 64) ?x1357113)))
 (let ((?x1590017 ((_ extract 71 64) ?x1341567)))
 (let (($x1589358 (= (_ bv0 8) ?x1590017)))
 (let ((?x1330165 (ite $x1589358 (_ bv576460752303355734 64) ?x1357536)))
 (let ((?x1589504 ((_ extract 79 72) ?x1341567)))
 (let (($x1589301 (= (_ bv0 8) ?x1589504)))
 (let ((?x1330186 (ite $x1589301 (_ bv576460752303355733 64) ?x1330165)))
 (let ((?x1589327 ((_ extract 87 80) ?x1341567)))
 (let (($x1589260 (= (_ bv0 8) ?x1589327)))
 (let ((?x1589416 (ite $x1589260 (_ bv576460752303355732 64) ?x1330186)))
 (let ((?x1590021 ((_ extract 95 88) ?x1341567)))
 (let (($x1589259 (= (_ bv0 8) ?x1590021)))
 (let ((?x1589397 (ite $x1589259 (_ bv576460752303355731 64) ?x1589416)))
 (let ((?x1589836 ((_ extract 103 96) ?x1341567)))
 (let (($x1358199 (= (_ bv0 8) ?x1589836)))
 (let ((?x1589409 (ite $x1358199 (_ bv576460752303355730 64) ?x1589397)))
 (let ((?x1589753 ((_ extract 111 104) ?x1341567)))
 (let (($x1358170 (= (_ bv0 8) ?x1589753)))
 (let ((?x1589437 (ite $x1358170 (_ bv576460752303355729 64) ?x1589409)))
 (let ((?x1589385 ((_ extract 119 112) ?x1341567)))
 (let (($x1357860 (= (_ bv0 8) ?x1589385)))
 (let ((?x1589774 (ite $x1357860 (_ bv576460752303355728 64) ?x1589437)))
 (let ((?x1589790 ((_ extract 127 120) ?x1341567)))
 (let (($x1357758 (= (_ bv0 8) ?x1589790)))
 (let ((?x1589452 (ite $x1357758 (_ bv576460752303355727 64) ?x1589774)))
 (let ((?x1590006 ((_ extract 135 128) ?x1341567)))
 (let (($x1351051 (= (_ bv0 8) ?x1590006)))
 (let ((?x1589285 (ite $x1351051 (_ bv576460752303355726 64) ?x1589452)))
 (let ((?x1590108 ((_ extract 143 136) ?x1341567)))
 (let (($x1330169 (= (_ bv0 8) ?x1590108)))
 (let ((?x1589493 (ite $x1330169 (_ bv576460752303355725 64) ?x1589285)))
 (let ((?x1589398 ((_ extract 151 144) ?x1341567)))
 (let (($x1356500 (= (_ bv0 8) ?x1589398)))
 (let ((?x1589500 (ite $x1356500 (_ bv576460752303355724 64) ?x1589493)))
 (let ((?x1589474 ((_ extract 159 152) ?x1341567)))
 (let (($x1355783 (= (_ bv0 8) ?x1589474)))
 (let ((?x1589841 (ite $x1355783 (_ bv576460752303355723 64) ?x1589500)))
 (let ((?x1589471 ((_ extract 167 160) ?x1341567)))
 (let (($x1355097 (= (_ bv0 8) ?x1589471)))
 (let ((?x1589434 (ite $x1355097 (_ bv576460752303355722 64) ?x1589841)))
 (let ((?x1589479 ((_ extract 175 168) ?x1341567)))
 (let (($x1355070 (= (_ bv0 8) ?x1589479)))
 (let ((?x1589392 (ite $x1355070 (_ bv576460752303355721 64) ?x1589434)))
 (let ((?x1590018 ((_ extract 183 176) ?x1341567)))
 (let (($x1354985 (= (_ bv0 8) ?x1590018)))
 (let ((?x1590011 (ite $x1354985 (_ bv576460752303355720 64) ?x1589392)))
 (let ((?x1590041 ((_ extract 191 184) ?x1341567)))
 (let (($x1354387 (= (_ bv0 8) ?x1590041)))
 (let ((?x1589321 (ite $x1354387 (_ bv576460752303355719 64) ?x1590011)))
 (let ((?x1589351 ((_ extract 199 192) ?x1341567)))
 (let (($x1354069 (= (_ bv0 8) ?x1589351)))
 (let ((?x1589407 (ite $x1354069 (_ bv576460752303355718 64) ?x1589321)))
 (let ((?x1590019 ((_ extract 207 200) ?x1341567)))
 (let (($x1353252 (= (_ bv0 8) ?x1590019)))
 (let ((?x1590078 (ite $x1353252 (_ bv576460752303355717 64) ?x1589407)))
 (let ((?x1589404 ((_ extract 215 208) ?x1341567)))
 (let (($x1308695 (= (_ bv0 8) ?x1589404)))
 (let ((?x1590056 (ite $x1308695 (_ bv576460752303355716 64) ?x1590078)))
 (let ((?x1590043 ((_ extract 223 216) ?x1341567)))
 (let (($x734836 (= (_ bv0 8) ?x1590043)))
 (let ((?x1589725 (ite $x734836 (_ bv576460752303355715 64) ?x1590056)))
 (let ((?x1589270 ((_ extract 231 224) ?x1341567)))
 (let (($x494659 (= (_ bv0 8) ?x1589270)))
 (let ((?x1589846 (ite $x494659 (_ bv576460752303355714 64) ?x1589725)))
 (let ((?x1589830 ((_ extract 239 232) ?x1341567)))
 (let (($x467575 (= (_ bv0 8) ?x1589830)))
 (let ((?x1589998 (ite $x467575 (_ bv576460752303355713 64) ?x1589846)))
 (let ((?x1341311 ((_ extract 247 240) ?x1341567)))
 (let (($x1358222 (= (_ bv0 8) ?x1341311)))
 (let ((?x1589368 (ite $x1358222 (_ bv576460752303355712 64) ?x1589998)))
 (let ((?x1589768 (bvsub ?x1589368 (_ bv576460752303355712 64))))
 (= ?x1589768 strlen_8287_64)))))))))))))))))))))))))))))))))))))))))))))))))))))))))))))))))))))))))))))))))))))))))))))))))))))))))))))))))))))))))))))))))))))))))))))))))))))))))))))))))))))))))))))))))))))))))))))))))))))))))))))))))))))))))))))))))))))))))))))))))))))))))
(maximize mem_7fffffffffef425_984_64)
(minimize strncmp_ret_86_32)
(minimize mem_7fffffffffeefa8_298_64)
(minimize mem_7fffffffffef425_984_64)
(minimize syscall_stub_ioctl_95_32)
(maximize mem_7fffffffffef048_398_32)
(maximize strlen_85_64)
(minimize mem_7fffffffffef048_398_32)
(maximize syscall_stub_newfstatat_124_64)
(minimize mem_7fffffffffef030_345_64)
(maximize mem_7fffffffffef420_174_8)
(minimize mem_2c_5313_264)
(minimize strlen_5314_64)
(maximize strlen_5314_64)
(maximize mem_7fffffffffef030_345_64)
(minimize mem_7fffffffffef740_6392_248)
(minimize mem_7fffffffffef058_431_64)
(minimize strlen_85_64)
(minimize args_1_8)
(minimize mem_7fffffffffeefa0_344_64)
(minimize strlen_986_64)
(maximize access_2286_32)
(minimize access_2286_32)
(minimize strlen_83_64)
(maximize args_1_8)
(maximize syscall_stub_ioctl_95_32)
(maximize strncmp_ret_86_32)
(maximize syscall_stub_newfstatat_220_64)
(maximize mem_7fffffffffeefa8_298_64)
(maximize syscall_stub_readlink_160_64)
(minimize syscall_stub_newfstatat_124_64)
(minimize filesize_file_0_/proc/self/loginuid_88_64)
(minimize strlen_8287_64)
(maximize mem_2c_5313_264)
(maximize filesize_file_0_/proc/self/loginuid_88_64)
(minimize syscall_stub_readlink_160_64)
(maximize mem_7fffffffffef038_297_64)
(maximize mem_7fffffffffeefa0_344_64)
(maximize mem_7fffffffffeefc8_430_64)
(minimize syscall_stub_newfstatat_220_64)
(maximize mem_7fffffffffef058_431_64)
(minimize strncmp_ret_84_32)
(maximize strncmp_ret_84_32)
(minimize mem_7fffffffffef420_174_8)
(minimize mem_7fffffffffeefc8_430_64)
(maximize strlen_83_64)
(maximize mem_7fffffffffef740_6392_248)
(maximize strlen_8287_64)
(minimize mem_7fffffffffef038_297_64)
(maximize access_3256_32)
(minimize access_3256_32)
(check-sat)
(get-objectives)
